HUN,8,6,248
2,12,1,17,3,21,0,29,4,47,5,34
2,90,5,8,0,73,3,15,4,78,1,42
1,81,2,96,5,17,0,49,4,64,3,7
4,88,5,92,2,87,3,44,0,50,1,31
2,91,1,35,0,74,5,50,3,36,4,92
0,44,1,13,3,24,5,25,2,84,4,18
4,37,3,40,0,81,5,1,1,79,2,23
3,98,1,90,2,39,5,4,4,48,0,21
